NAME : rnd35_20.tsp
TYPE : TSP
DIMENSION : 20
EDGE_WEIGHT_TYPE : EUC_2D
NODE_COORD_SECTION
0 501 19
1 148 241
2 738 938
3 855 429
4 872 40
5 142 241
6 328 551
7 690 128
8 613 628
9 876 384
10 649 563
11 58 790
12 181 719
13 421 282
14 2 82
15 422 569
16 259 366
17 840 474
18 313 291
19 901 42
